Optimize a model with 3245461 rows, 1904814 columns and 11553127 nonzeros
Model has 1560 quadratic objective terms
Coefficient statistics:
  Matrix range    [1e+00, 7e+02]
  Objective range [1e+02, 7e+02]
  Bounds range    [1e+00, 1e+05]
  RHS range       [1e+00, 1e+04]
Presolve removed 154862 rows and 123314 columns (presolve time = 5s) ...
Presolve removed 154901 rows and 123314 columns (presolve time = 13s) ...
Presolve removed 154901 rows and 146729 columns (presolve time = 15s) ...
Presolve removed 154901 rows and 146729 columns (presolve time = 20s) ...
Presolve removed 154901 rows and 146729 columns (presolve time = 25s) ...
Presolve removed 158172 rows and 150000 columns (presolve time = 30s) ...
Presolve removed 178355 rows and 170183 columns (presolve time = 35s) ...
Presolve removed 189528 rows and 170183 columns (presolve time = 40s) ...
Presolve removed 189528 rows and 170183 columns (presolve time = 45s) ...
Presolve removed 191852 rows and 170183 columns (presolve time = 50s) ...
Presolve removed 199410 rows and 170183 columns (presolve time = 55s) ...
Presolve removed 204892 rows and 170183 columns (presolve time = 60s) ...
Presolve removed 204892 rows and 170183 columns (presolve time = 65s) ...
Presolve removed 204892 rows and 170183 columns (presolve time = 70s) ...
Presolve removed 204892 rows and 170183 columns (presolve time = 75s) ...
Presolve removed 204892 rows and 170183 columns (presolve time = 80s) ...
Presolve removed 204892 rows and 170183 columns (presolve time = 85s) ...
Presolve removed 204892 rows and 170183 columns (presolve time = 90s) ...
Presolve removed 270606 rows and 190998 columns (presolve time = 101s) ...
Presolve removed 408793 rows and 284896 columns (presolve time = 106s) ...
Presolve removed 408793 rows and 284896 columns (presolve time = 112s) ...
Presolve removed 408793 rows and 284896 columns (presolve time = 115s) ...
Presolve removed 408793 rows and 284896 columns (presolve time = 124s) ...
Presolve removed 408793 rows and 284896 columns (presolve time = 125s) ...
Presolve removed 408793 rows and 284896 columns (presolve time = 130s) ...
Presolve removed 408793 rows and 284896 columns (presolve time = 135s) ...
Presolve removed 408793 rows and 284896 columns (presolve time = 140s) ...
Presolve removed 408793 rows and 284896 columns (presolve time = 145s) ...
Presolve removed 408793 rows and 284896 columns (presolve time = 150s) ...
Presolve removed 408793 rows and 284896 columns (presolve time = 155s) ...
Presolve removed 408793 rows and 284896 columns (presolve time = 160s) ...
Presolve removed 408793 rows and 284896 columns (presolve time = 165s) ...
Presolve removed 408793 rows and 284896 columns (presolve time = 170s) ...
Presolve removed 408793 rows and 284896 columns (presolve time = 175s) ...
Presolve removed 408793 rows and 284896 columns (presolve time = 180s) ...
Presolve removed 408793 rows and 284896 columns (presolve time = 185s) ...
Presolve removed 408793 rows and 284896 columns (presolve time = 190s) ...
Presolve removed 408793 rows and 284896 columns (presolve time = 195s) ...
Presolve removed 408793 rows and 284896 columns (presolve time = 200s) ...
Presolve removed 408793 rows and 284896 columns (presolve time = 205s) ...
Presolve removed 408793 rows and 284896 columns (presolve time = 210s) ...
Presolve removed 408793 rows and 284896 columns (presolve time = 215s) ...
Presolve removed 408793 rows and 284896 columns (presolve time = 220s) ...
Presolve removed 408793 rows and 284896 columns (presolve time = 225s) ...
Presolve removed 408793 rows and 284896 columns (presolve time = 230s) ...
Presolve removed 408793 rows and 284896 columns (presolve time = 235s) ...
Presolve removed 408793 rows and 284896 columns (presolve time = 240s) ...
Presolve removed 408793 rows and 284896 columns (presolve time = 245s) ...
Presolve removed 408793 rows and 284896 columns (presolve time = 250s) ...
Presolve removed 408793 rows and 284896 columns (presolve time = 255s) ...
Presolve removed 408793 rows and 284896 columns (presolve time = 260s) ...
Presolve removed 408793 rows and 284896 columns (presolve time = 265s) ...
Presolve removed 408793 rows and 284896 columns (presolve time = 270s) ...
Presolve removed 408793 rows and 284896 columns (presolve time = 275s) ...
Presolve removed 408793 rows and 284896 columns (presolve time = 280s) ...
Presolve removed 408793 rows and 284896 columns (presolve time = 285s) ...
Presolve removed 408793 rows and 284896 columns (presolve time = 290s) ...
Presolve removed 408793 rows and 284896 columns (presolve time = 295s) ...
Presolve removed 408793 rows and 284896 columns (presolve time = 300s) ...
Presolve removed 408793 rows and 284896 columns (presolve time = 305s) ...
Presolve removed 408793 rows and 284896 columns (presolve time = 310s) ...
Presolve removed 408793 rows and 284896 columns (presolve time = 315s) ...
Presolve removed 408793 rows and 284896 columns (presolve time = 320s) ...
Presolve removed 408793 rows and 284896 columns (presolve time = 325s) ...
Presolve removed 408793 rows and 284896 columns (presolve time = 330s) ...
Presolve removed 408793 rows and 284896 columns (presolve time = 335s) ...
Presolve removed 408793 rows and 284896 columns (presolve time = 340s) ...
Presolve removed 408793 rows and 284896 columns (presolve time = 345s) ...
Presolve removed 408793 rows and 284896 columns (presolve time = 350s) ...
Presolve removed 408793 rows and 284896 columns (presolve time = 355s) ...
Presolve removed 408793 rows and 284896 columns (presolve time = 360s) ...
Presolve removed 408793 rows and 284896 columns (presolve time = 365s) ...
Presolve removed 408793 rows and 284896 columns (presolve time = 370s) ...
Presolve removed 408793 rows and 284896 columns (presolve time = 375s) ...
Presolve removed 408793 rows and 284896 columns (presolve time = 380s) ...
Presolve removed 408793 rows and 284896 columns (presolve time = 385s) ...
Presolve removed 408793 rows and 284896 columns (presolve time = 390s) ...
Presolve removed 408793 rows and 284896 columns (presolve time = 395s) ...
Presolve removed 408793 rows and 284896 columns (presolve time = 400s) ...
Presolve removed 408793 rows and 284896 columns (presolve time = 405s) ...
Presolve removed 408793 rows and 284896 columns (presolve time = 410s) ...
Presolve removed 408793 rows and 284896 columns (presolve time = 415s) ...
Presolve removed 408793 rows and 284896 columns (presolve time = 420s) ...
Presolve removed 429627 rows and 315338 columns (presolve time = 427s) ...
Presolve removed 446197 rows and 331904 columns (presolve time = 430s) ...
Presolve removed 462763 rows and 331904 columns (presolve time = 436s) ...
Presolve removed 477675 rows and 331904 columns (presolve time = 442s) ...
Presolve removed 477675 rows and 331904 columns (presolve time = 451s) ...
Presolve removed 477675 rows and 331904 columns (presolve time = 455s) ...
Presolve removed 477675 rows and 331904 columns (presolve time = 460s) ...
Presolve removed 477675 rows and 331904 columns (presolve time = 465s) ...
Presolve removed 477675 rows and 331904 columns (presolve time = 470s) ...
Presolve removed 481292 rows and 335122 columns (presolve time = 706s) ...
Presolve removed 481292 rows and 335122 columns
Presolve time: 705.95s
Presolved: 2765729 rows, 1571252 columns, 10226230 nonzeros
Variable types: 419772 continuous, 1151480 integer (1151480 binary)
Found heuristic solution: objective 9803.0833333
Optimize a model with 2765729 rows, 1571252 columns and 10226230 nonzeros
Coefficient statistics:
  Matrix range    [2e-01, 7e+02]
  Objective range [1e+00, 7e+02]
  Bounds range    [6e-01, 4e+01]
  RHS range       [1e+00, 1e+04]

Deterministic concurrent LP optimizer: primal simplex, dual simplex, and barrier
Showing barrier log only...

Presolve removed 661 rows and 0 columns (presolve time = 6s) ...
Presolve removed 956 rows and 0 columns (presolve time = 10s) ...
Presolve removed 956 rows and 0 columns
Presolved: 2764773 rows, 1571252 columns, 10203404 nonzeros

Root barrier log...

Elapsed ordering time = 5s
Elapsed ordering time = 10s
Elapsed ordering time = 15s
Elapsed ordering time = 20s
Elapsed ordering time = 37s
Elapsed ordering time = 42s
Elapsed ordering time = 45s
Elapsed ordering time = 50s
Elapsed ordering time = 55s
Elapsed ordering time = 60s
Elapsed ordering time = 65s
Elapsed ordering time = 70s
Elapsed ordering time = 75s
Ordering time: 77.89s

Barrier statistics:
 Dense cols : 1916
 AA' NZ     : 2.539e+07
 Factor NZ  : 1.670e+08 (roughly 3.0 GBytes of memory)
 Factor Ops : 6.352e+11 (roughly 50 seconds per iteration)
 Threads    : 2

                  Objective                Residual
Iter       Primal          Dual         Primal    Dual     Compl     Time
   0   1.38753465e+07 -3.54582272e+08  1.36e+04 4.34e+02  6.96e+03   945s
   1   8.18448966e+06 -5.47810336e+08  8.23e+03 4.72e+02  4.25e+03  1021s
   2   5.32809084e+06 -7.13462905e+08  5.47e+03 1.08e+02  2.77e+03  1101s
   3   2.95450529e+06 -7.06802391e+08  2.81e+03 6.52e+00  1.40e+03  1168s
   4   8.08973190e+05 -5.60134198e+08  5.21e+02 7.68e-08  3.14e+02  1245s
   5   5.42924137e+05 -2.40753992e+08  2.72e+02 3.82e-08  1.33e+02  1313s
   6   2.43566233e+05 -5.51762451e+07  7.61e+01 1.86e-08  3.19e+01  1381s
   7   1.59488396e+05 -2.40263362e+07  4.33e+01 1.25e-08  1.63e+01  1467s
   8   8.57164286e+04 -5.90155661e+06  5.07e+00 3.57e-09  2.61e+00  1545s
   9   4.75952865e+04 -3.71294208e+06  1.37e+00 2.04e-09  1.23e+00  1612s
